proyfinal/src/viki/013/experimentInOfficeAgust.take6.output/f90731ec-58d6-480c-8f18-275919966444.als.dat
{'cnf.clauses': '118081',
 'cnf.totvars': '69608',
 'conflict literals': '626',
 'conflicts': '109',
 'decisions': '4530',
 'memused.mb': '16.26',
 'outcome': 'UNSAT',
 'propagations': '165498',
 'restarts': '2',
 'solver.msecs': 40,
 'task.msecs': 109}
