proyfinal/src/viki/013/experimentInOfficeAgust.take6.output/f90731ec-58d6-480c-8f18-275919966444.als.out
Reading from standard input... Use '--help' for help.
============================[ Problem Statistics ]=============================
|                                                                             |
|  Number of variables:         69608                                         |
|  Number of clauses:          118081                                         |
|  Parse time:                   0.03 s                                       |
|                                                                             |
============================[ Search Statistics ]==============================
| Conflicts |          ORIGINAL         |          LEARNT          | Progress |
|           |    Vars  Clauses Literals |    Limit  Clauses Lit/Cl |          |
===============================================================================
|       100 |   53595    81085   200570 |    29731       92      6 | 23.005 % |
===============================================================================
restarts              : 2
conflicts             : 109            (2671 /sec)
decisions             : 4530           (0.00 % random) (111013 /sec)
propagations          : 165498         (4055727 /sec)
conflict literals     : 626            (28.78 % deleted)
Memory used           : 16.26 MB
CPU time              : 0.040806 s

UNSATISFIABLE
